NAME : census.pruned_global_4.0.tour
COMMENT : Length = 0
TYPE : TOUR
DIMENSION : 68
TOUR_SECTION
3
6
64
63
37
1
9
50
25
39
35
8
34
27
67
40
49
52
47
2
32
33
66
43
54
56
58
60
62
68
65
61
59
57
55
53
51
48
46
45
44
42
41
38
36
31
30
29
28
26
24
23
22
21
20
19
18
17
16
15
14
13
12
11
10
7
5
4
-1
EOF
